\* Problem: Unknown *\

Maximize
 obj: + xp_0_0 + xp_0_1 + xp_1_0 + xp_2_0 + xp_2_1 + xp_3_0 + xp_4_0
 + xp_5_0 + xp_5_1 + xp_6_0 + xp_6_1 + xp_6_2 + xp_7_0 + xp_8_0 + xp_9_0
 + xp_10_0 + xp_10_1 + xp_11_0 + xp_12_0 + xp_12_1 + xp_13_0 + xp_14_0
 + xp_15_0 + xp_15_1 + xp_16_0 + xp_17_0 + xp_17_1 + xp_18_0 + xp_18_1
 + xp_19_0 + xp_20_0 + xp_21_0 + xp_21_1 + xp_21_2 + xp_22_0 + xp_22_1
 + xp_22_2 + xp_23_0 + xp_24_0 + xp_24_1 + xp_24_2 + xp_25_0 + xp_25_1
 + xp_26_0 + xp_27_0 + xp_28_0 + xp_29_0 + xp_29_1 + xp_30_0 + xp_31_0
 + xp_31_1 + xp_32_0 + xp_33_0 + xp_34_0 + xp_35_0 + xp_36_0 + xp_37_0
 + xp_38_0 + xp_38_1 + xp_39_0 + xp_40_0 + xp_40_1 + xp_41_0 + xp_42_0
 + xp_42_1 + xp_42_2 + xp_43_0 + xp_44_0 + xp_45_0 + xp_46_0 + xp_47_0
 + xp_48_0 + xp_48_1 + xp_49_0 + xp_50_0 + xp_51_0 + xp_52_0 + xp_52_1
 + xp_53_0 + xp_54_0 + xp_55_0 + xp_56_0 + xp_57_0 + xp_58_0 + xp_58_1
 + xp_59_0 + xp_60_0 + xp_60_1 + xp_60_2 + xp_61_0 + xp_62_0 + xp_63_0
 + xp_64_0 + xp_65_0

Subject To
 r_1: + xp_53_0 + xp_51_0 + xp_42_2 + xp_40_0 + xp_35_0 + xp_33_0
 <= 150.204731574158
 r_2: + xp_58_1 + xp_24_2 + xp_15_1 <= 155
 r_3: + xp_56_0 + xp_21_0 + xp_12_0 <= 155
 r_4: + xp_65_0 + xp_50_0 + xp_45_0 + xp_24_1 + xp_24_0 + xp_15_0
 + xp_10_1 + xp_10_0 + xp_5_1 + xp_5_0 + xp_2_1 <= 141.596349491323
 r_5: + xp_52_1 + xp_38_1 + xp_31_1 + xp_17_0 + xp_14_0
 <= 141.596349491323
 r_6: + xp_22_1 + xp_22_0 + xp_21_2 + xp_13_0 + xp_12_1 + xp_3_0
 + xp_2_0 <= 151.25355450237
 r_7: + xp_60_2 + xp_60_1 + xp_48_1 + xp_46_0 + xp_42_1 + xp_42_0
 + xp_40_1 + xp_6_2 + xp_0_0 <= 149.23665791776
 r_8: 0 xp_0_0 <= 152.393669634026
 r_9: + xp_64_0 + xp_29_1 + xp_25_0 + xp_24_2 + xp_21_0 + xp_6_0
 <= 150.204731574158
 r_10: + xp_63_0 <= 149.23665791776
 r_11: + xp_60_0 + xp_38_0 + xp_31_0 <= 155
 r_12: + xp_62_0 + xp_61_0 + xp_60_2 + xp_60_1 + xp_22_2 + xp_21_1
 <= 151.25355450237
 r_13: + xp_64_0 + xp_59_0 + xp_58_1 + xp_56_0 + xp_29_1 + xp_29_0
 + xp_24_2 + xp_21_0 + xp_20_0 + xp_15_1 + xp_12_0 <= 150.204731574158
 r_14: + xp_60_2 + xp_57_0 + xp_53_0 + xp_42_2 + xp_42_1 + xp_35_0
 + xp_18_0 <= 150.204731574158
 r_15: + xp_58_0 <= 149.23665791776
 r_16: + xp_65_0 + xp_55_0 + xp_53_0 + xp_51_0 + xp_50_0 + xp_10_1
 + xp_10_0 <= 155
 r_17: + xp_58_1 + xp_54_0 + xp_52_1 + xp_36_0 + xp_31_1
 <= 141.596349491323
 r_18: + xp_52_0 + xp_2_1 <= 155
 r_19: + xp_60_0 + xp_48_0 <= 152.393669634026
 r_20: + xp_50_0 + xp_49_0 + xp_48_1 + xp_46_0 + xp_45_0 + xp_10_1
 + xp_5_1 <= 141.596349491323
 r_21: + xp_52_1 + xp_47_0 + xp_26_0 + xp_22_2 + xp_21_1 + xp_17_1
 + xp_17_0 + xp_7_0 <= 155
 r_22: + xp_61_0 + xp_60_2 + xp_60_1 + xp_43_0 + xp_42_1 + xp_42_0
 + xp_40_1 + xp_38_1 <= 151.25355450237
 r_23: + xp_56_0 + xp_52_0 + xp_41_0 + xp_38_0 + xp_34_0 + xp_31_0
 <= 151.25355450237
 r_24: + xp_62_0 + xp_44_0 + xp_42_2 + xp_40_0 + xp_39_0 + xp_21_2
 + xp_21_1 + xp_12_1 + xp_2_0 <= 151.25355450237
 r_25: + xp_62_0 + xp_44_0 + xp_42_2 + xp_40_0 + xp_37_0 + xp_35_0
 + xp_33_0 <= 155
 r_26: + xp_39_0 + xp_36_0 + xp_32_0 + xp_31_1 <= 155
 r_27: + xp_56_0 + xp_52_0 + xp_34_0 + xp_31_0 + xp_30_0
 <= 151.25355450237
 r_28: + xp_60_1 + xp_60_0 + xp_48_1 + xp_48_0 + xp_42_0 + xp_29_1
 + xp_27_0 + xp_25_0 + xp_24_2 + xp_21_0 + xp_18_1 + xp_8_0 + xp_6_0
 <= 149.23665791776
 r_29: + xp_29_0 + xp_28_0 + xp_25_1 + xp_24_1 + xp_22_0 + xp_6_1
 + xp_0_1 <= 149.23665791776
 r_30: + xp_63_0 + xp_26_0 + xp_24_0 + xp_23_0 + xp_22_2 + xp_22_1
 + xp_21_2 + xp_21_1 + xp_17_1 <= 152.393669634026
 r_31: + xp_58_0 + xp_28_0 + xp_24_1 + xp_22_0 + xp_19_0 + xp_17_0
 + xp_15_0 + xp_14_0 + xp_13_0 + xp_12_1 <= 149.23665791776
 r_32: + xp_60_2 + xp_46_0 + xp_42_1 + xp_40_1 + xp_29_0 + xp_25_1
 + xp_20_0 + xp_18_0 + xp_16_0 + xp_15_1 + xp_12_0 + xp_6_2 + xp_6_1
 <= 149.23665791776
 r_33: + xp_60_1 + xp_48_1 + xp_42_0 + xp_18_1 + xp_17_1 + xp_11_0
 <= 149.23665791776
 r_34: + xp_26_0 + xp_23_0 + xp_22_2 + xp_21_1 + xp_17_1 + xp_10_1
 + xp_7_0 + xp_5_1 + xp_4_0 <= 152.393669634026
 r_35: + xp_60_0 + xp_48_0 + xp_8_0 + xp_6_1 + xp_6_0 + xp_1_0 + xp_0_1
 <= 152.393669634026
 r_36: + xp_63_0 + xp_24_0 + xp_22_1 + xp_21_2 + xp_10_0 + xp_9_0
 + xp_6_2 + xp_5_0 + xp_3_0 + xp_2_1 + xp_2_0 + xp_0_0
 <= 152.393669634026

Bounds
 0 <= xp_0_0 <= 6.95947501726917
 0 <= xp_0_1 <= 20.8784250518075
 0 <= xp_1_0 <= 22.5558369790467
 0 <= xp_2_0 <= 12.419986184665
 0 <= xp_2_1 <= 12.419986184665
 0 <= xp_3_0 <= 14.4186046511628
 0 <= xp_4_0 <= 28.2661754547548
 0 <= xp_5_0 <= 16.9168777342851
 0 <= xp_5_1 <= 5.63895924476168
 0 <= xp_6_0 <= 6.49551001611789
 0 <= xp_6_1 <= 12.9910200322358
 0 <= xp_6_2 <= 6.49551001611789
 0 <= xp_7_0 <= 21.9848031314759
 0 <= xp_8_0 <= 24.9827308312227
 0 <= xp_9_0 <= 17.4165323509095
 0 <= xp_10_0 <= 4.06861616394198
 0 <= xp_10_1 <= 12.2058484918259
 0 <= xp_11_0 <= 25.5537646787935
 0 <= xp_12_0 <= 8.351370020723
 0 <= xp_12_1 <= 8.351370020723
 0 <= xp_13_0 <= 14.9896384987336
 0 <= xp_14_0 <= 22.6985954409394
 0 <= xp_15_0 <= 14.1330877273774
 0 <= xp_15_1 <= 14.1330877273774
 0 <= xp_16_0 <= 26.9813492977205
 0 <= xp_17_0 <= 11.8489523370942
 0 <= xp_17_1 <= 11.8489523370942
 0 <= xp_18_0 <= 5.06792539719088
 0 <= xp_18_1 <= 15.2037761915726
 0 <= xp_19_0 <= 19.5579092793
 0 <= xp_20_0 <= 23.2696292885102
 0 <= xp_21_0 <= 4.67533962698595
 0 <= xp_21_1 <= 4.67533962698595
 0 <= xp_21_2 <= 9.35067925397191
 0 <= xp_22_0 <= 5.67464886023486
 0 <= xp_22_1 <= 11.3492977204697
 0 <= xp_22_2 <= 5.67464886023486
 0 <= xp_23_0 <= 23.4123877504029
 0 <= xp_24_0 <= 4.56827078056643
 0 <= xp_24_1 <= 9.13654156113286
 0 <= xp_24_2 <= 4.56827078056643
 0 <= xp_25_0 <= 20.8784250518075
 0 <= xp_25_1 <= 6.95947501726917
 0 <= xp_26_0 <= 18.5586000460511
 0 <= xp_27_0 <= 14.9896384987336
 0 <= xp_28_0 <= 24.6972139074373
 0 <= xp_29_0 <= 11.206539258577
 0 <= xp_29_1 <= 11.206539258577
 0 <= xp_30_0 <= 27.695141607184
 0 <= xp_31_0 <= 4.4612019341469
 0 <= xp_31_1 <= 13.3836058024407
 0 <= xp_32_0 <= 15.7034308081971
 0 <= xp_33_0 <= 18.8441169698365
 0 <= xp_34_0 <= 22.6985954409394
 0 <= xp_35_0 <= 15.5606723463044
 0 <= xp_36_0 <= 17.9875661984803
 0 <= xp_37_0 <= 14.2758461892701
 0 <= xp_38_0 <= 13.2765369560212
 0 <= xp_38_1 <= 4.42551231867373
 0 <= xp_39_0 <= 15.1323969606263
 0 <= xp_40_0 <= 14.5613631130555
 0 <= xp_40_1 <= 4.85378770435183
 0 <= xp_41_0 <= 20.5572185125489
 0 <= xp_42_0 <= 5.99585539949344
 0 <= xp_42_1 <= 5.99585539949344
 0 <= xp_42_2 <= 11.9917107989869
 0 <= xp_43_0 <= 16.9882569652314
 0 <= xp_44_0 <= 18.130324660373
 0 <= xp_45_0 <= 14.9896384987336
 0 <= xp_46_0 <= 20.985493898227
 0 <= xp_47_0 <= 19.9861846649781
 0 <= xp_48_0 <= 21.1996315910661
 0 <= xp_48_1 <= 7.06654386368869
 0 <= xp_49_0 <= 14.8468800368409
 0 <= xp_50_0 <= 16.1317061938752
 0 <= xp_51_0 <= 24.1261800598664
 0 <= xp_52_0 <= 20.0218742804513
 0 <= xp_52_1 <= 6.67395809348377
 0 <= xp_53_0 <= 27.9806585309694
 0 <= xp_54_0 <= 27.5523831452913
 0 <= xp_55_0 <= 21.5565277457978
 0 <= xp_56_0 <= 15.1323969606263
 0 <= xp_57_0 <= 17.8448077365876
 0 <= xp_58_0 <= 20.771356205388
 0 <= xp_58_1 <= 6.92378540179599
 0 <= xp_59_0 <= 27.695141607184
 0 <= xp_60_0 <= 8.7796454064011
 0 <= xp_60_1 <= 4.38982270320055
 0 <= xp_60_2 <= 4.38982270320055
 0 <= xp_61_0 <= 25.8392816025789
 0 <= xp_62_0 <= 27.5523831452913
 0 <= xp_63_0 <= 25.8392816025789
 0 <= xp_64_0 <= 27.8379000690767
 0 <= xp_65_0 <= 20.1289431268708

End
